3195 3126 3083 2982 2910 2853 2898 2863 2866 2852 2823 2876 2857 2801 2850 2858 2847 2847 2858 2835 2789 2777 2765 2703 2678 2650 2622 2606 2566 2557 2537 2487 2453 2437 2404 2394 2361 2319 2297 2285 2268 2260 2217 2208 2181 2163 2146 2132 2116 2110 2100 2091 2090 2080 2068 2068 2056 2048 2040 2037 2019 2010 2009 1992 1984 1966 1957 1951 1936 1935 1918 1915 1910 1904 1898 1892 1885 1877 1867 1859 1847 1835 1833 1821 1814 1801 1800 1789 1781 1769 1767 1761 1724 1724 1723 1714 1711 1708 1697 1694 1693 1689 1676 1674 1658 1658 1650 1650 1648 1642 1640 1638 1634 1632 1629 1628 1626 1623 1623 1623 1621 1621 1620 1620 1590 1590 1586 1586 1586 1586 1576 1576 1573 1572 1568 1568 1553 1549 1508 1503 1500 1498 1498 1491 1489 1484 1477 1475 1474 1469 1468 1467 1464 1463 1461 1461 1459 1453 1451 1449 1449 1448 1448 1438 1435 1432 1432 1431 1431 1431 1431 1431 1431 1428 1428 1426 1425 1423 1423 1423 1423 1423 1423 1423 1423 1423 1423 1423 1422 1422 1422 1422 1415 1415 1413 1413 1413 1413 1412 1407 1407 1406 1405 1400 1399 1397 1393 1390 1385 1385 1377 1376 1376 1370 1370 1368 1368 1367 1367 1366 1366 1366 1363 1363 1360 1357 1357 1354 1354 1345 1345 1340 1340 1340 1338 1338 1337 1335 1332 1332 1332 1332 1332 1332 1332 1332 1331 1331 1331 1331 1331 1331 1331 1329 1329 1329 1329 1329 1329 1329 1326 1326 1323 1323 1321 1321 1321 1321 1321 1321 1318 1311 1311 1311 1311 1311 1311 1311 1300 1300 1300 1296 1296 1294 1294 1291 1291 1291 1291 1291 1291 1290 1290 1290 1290 1290 1290 1290 1290 1290 1290 1290 1290 1290 1290 1290 1290 1290 1290 1290 1290 1290 1290 1290 1290 1290 1290 1290 1290 1290 1290 1290 1290 1290 1290 1290 1290 1290 1290 1290 1290 1290 1290 1290 1290 1290 1290 1290 1290 1290 1290 1290 1290 1290 1290 1290 1290 1290 1290 1290 1290 1290 1290 1290 1290 1290 1290 1290 1290 1289 1289 1289 1289 1289 1289 1289 1289 1289 1289 1289 1289 1289 1289 1289 1289 1289 1289 1289 1289 1289 1289 1288 1288 1288 1287 1287 1287 1286 1286 1286 1286 1286 1283 1283 1283 1283 1283 1283 1281 1275 1275 1275 1275 1274 1274 1272 1272 1272 1272 1272 1272 1272 1272 1272 1272 1272 1271 1271 1271 1271 1271 1271 1271 1271 1271 1271 1271 1271 1271 1271 1271 1271 1271 1271 1271 1271 1271 1271 1271 1271 1271 1271 1271 1271 1271 1271 1271 1271 1271 1271 1271 1271 1271 1271 1271 1271 1271 1271 1271 1271 1271 1271 1271 1271 1271 1271 1271 1271 1271 1271 1271 1271 1271 1271 1271 1271 1271 1271 1271 1271 1271 1271 1271 1271 1271 1271 1271 1271 1271 1271 1271 1271 1271 1271 1271 1271 1271 1271 1271 1271 1271 1271 1271 1271 1271 1271 1271 1271 1271 1271 1271 1271 1271 1271 1271 1271 1271 1271 1271 1271 1271 1271 1271 1271 1271 1271 1271 1271 1271 1271 1270 1270 1270 1270 1267 1266 1266 1266 1266 1266 1266 1266 1266 1266 1266 1266 1266 1266 1266 1266 1266 1266 1266 1266 1266 1266 1266 1266 1266 1266 1266 1266 1266 1266 1266 1266 1266 1266 1266 1266 1266 1266 1266 1266 1266 1266 1266 1266 1266 1266 1266 1265 1265 1265 1265 1265 1265 1265 1265 1265 1265 1265 1265 1265 1265 1265 1265 1265 1265 1265 1265 1265 1265 1265 1265 1265 1265 1265 1265 1265 1265 1265 1265 1265 1265 1265 1265 1265 1265 1265 1265 1265 1265 1265 1265 1265 1265 1265 1265 1265 1265 1265 1265 1265 1265 1265 1265 1265 1265 1265 1265 1265 1265 1265 1265 1265 1265 1265 1265 1265 1265 1265 1265 1265 1265 1265 1265 1265 1265 1265 1265 1265 1265 1265 1265 1265 1265 1265 1265 1265 1265 1265 1265 1265 1265 1265 1265 1265 1265 1265 1265 1265 1265 1265 1265 1265 1265 1265 1265 1265 1265 1265 1265 1265 1265 1265 1265 1265 1265 1265 1265 1265 1265 1265 1265 1265 1265 1265 1265 1265 1265 1265 1265 1265 1265 1265 1265 1265 1265 1265 1265 1265 1265 1265 1265 1265 1265 1265 1265 1265 1265 1265 1265 1265 1265 1265 1265 1265 1265 1265 1265 1265 1265 1265 1265 1265 1265 1265 1265 1265 1265 1265 1265 1265 1265 1265 1265 1265 1265 1265 1265 1265 1265 1265 1265 1265 1265 1265 1265 1265 1265 1265 1265 1265 1265 1265 1265 1265 1265 1265 1265 1265 1265 1265 1265 1265 1265 1265 1265 1265 1265 1265 1265 1265 1265 1265 1265 1265 1265 1265 1265 1265 1265 1265 1265 1265 1265 1265 1265 1265 1265 1265 1265 1265 1265 1265 1265 1265 1265 1265 1265 1265 1265 1265 1265 1265 1265 1265 1265 1265 1265 1265 1265 1265 1265 1265 1265 1265 1265 1265 1265 1265 1265 1265 1265 1265 1265 1265 1265 1265 1265 1265 1265 1265 1265 1265 1265 1265 1265 1265 1265 1265 1265 1265 1265 1265 1265 1265 1265 1265 1265 1265 1265 1265 1265 1265 1265 1265 1265 1265 1265 1265 1265 1265 1265 1265 1265 1265 1265 1265 1265 1265 1265 1265 1265 1265 1265 1265 1265 1265 1265 1265 1265 1265 1265 1265 1265 1265 1265 1265 1265 1265 1265 1265 1265 1265 1265 1265 1265 1265 1265 1265 1265 1265 1265 1265 1265 1265 1265 1265 1265 1265 1265 1265 1265 1265 1265 1265 1265 1265 1265 1265 1265 1265 1265 1265 1265 1265 1265 1265 1265 1265 1265 1265 1265 1265 1265 1265 1265 1265 1265 1265 1265 1265 1265 1265 1265 1265 1265 1265 1265 1265 1265 1265 1265 1265 1265 1265 1265 1265 1265 1265 1265 1265 1265 1265 1265 1265 1265 1265 1265 1265 1265 1265 1265 1265 1265 1265 1265 1265 1265 1265 1265 1265 1265 1265 1265 1265 1265 1265 1265 1265 1265 1265 1265 1265 1265 1265 1265 1265 1265 1265 1265 1265 1265 1265 1265 1265 1265 1265 1265 1265 1265 1265 1265 1265 1265 1265 1265 1265 1265 1265 1265 1265 1265 1265 1265 1265 1265 1265 1265 1265 1265 1265 1265 1265 1265 1265 1265 1265 1265 1265 1265 1265 1265 1265 1265 1265 1265 1265 1265 1265 1265 1265 1265 1265 1265 1265 1265 1265 1265 1265 
404 275 249 177 143 143 99 83 62 53 44 32 23 18 9 4 1 0 0 0 0 0 0 0 0 0 0 0 0 0 0 0 0 0 0 0 0 0 0 0 0 0 0 0 0 0 0 0 0 0 0 0 0 0 0 0 0 0 0 0 0 0 0 0 0 0 0 0 0 0 0 0 0 0 0 0 0 0 0 0 0 0 0 0 0 0 0 0 0 0 0 0 0 0 0 0 0 0 0 0 0 0 0 0 0 0 0 0 0 0 0 0 0 0 0 0 0 0 0 0 0 0 0 0 0 0 0 0 0 0 0 0 0 0 0 0 0 0 0 0 0 0 0 0 0 0 0 0 0 0 0 0 0 0 0 0 0 0 0 0 0 0 0 0 0 0 0 0 0 0 0 0 0 0 0 0 0 0 0 0 0 0 0 0 0 0 0 0 0 0 0 0 0 0 0 0 0 0 0 0 0 0 0 0 0 0 0 0 0 0 0 0 0 0 0 0 0 0 0 0 0 0 0 0 0 0 0 0 0 0 0 0 0 0 0 0 0 0 0 0 0 0 0 0 0 0 0 0 0 0 0 0 0 0 0 0 0 0 0 0 0 0 0 0 0 0 0 0 0 0 0 0 0 0 0 0 0 0 0 0 0 0 0 0 0 0 0 0 0 0 0 0 0 0 0 0 0 0 0 0 0 0 0 0 0 0 0 0 0 0 0 0 0 0 0 0 0 0 0 0 0 0 0 0 0 0 0 0 0 0 0 0 0 0 0 0 0 0 0 0 0 0 0 0 0 0 0 0 0 0 0 0 0 0 0 0 0 0 0 0 0 0 0 0 0 0 0 0 0 0 0 0 0 0 0 0 0 0 0 0 0 0 0 0 0 0 0 0 0 0 0 0 0 0 0 0 0 0 0 0 0 0 0 0 0 0 0 0 0 0 0 0 0 0 0 0 0 0 0 0 0 0 0 0 0 0 0 0 0 0 0 0 0 0 0 0 0 0 0 0 0 0 0 0 0 0 0 0 0 0 0 0 0 0 0 0 0 0 0 0 0 0 0 0 0 0 0 0 0 0 0 0 0 0 0 0 0 0 0 0 0 0 0 0 0 0 0 0 0 0 0 0 0 0 0 0 0 0 0 0 0 0 0 0 0 0 0 0 0 0 0 0 0 0 0 0 0 0 0 0 0 0 0 0 0 0 0 0 0 0 0 0 0 0 0 0 0 0 0 0 0 0 0 0 0 0 0 0 0 0 0 0 0 0 0 0 0 0 0 0 0 0 0 0 0 0 0 0 0 0 0 0 0 0 0 0 0 0 0 0 0 0 0 0 0 0 0 0 0 0 0 0 0 0 0 0 0 0 0 0 0 0 0 0 0 0 0 0 0 0 0 0 0 0 0 0 0 0 0 0 0 0 0 0 0 0 0 0 0 0 0 0 0 0 0 0 0 0 0 0 0 0 0 0 0 0 0 0 0 0 0 0 0 0 0 0 0 0 0 0 0 0 0 0 0 0 0 0 0 0 0 0 0 0 0 0 0 0 0 0 0 0 0 0 0 0 0 0 0 0 0 0 0 0 0 0 0 0 0 0 0 0 0 0 0 0 0 0 0 0 0 0 0 0 0 0 0 0 0 0 0 0 0 0 0 0 0 0 0 0 0 0 0 0 0 0 0 0 0 0 0 0 0 0 0 0 0 0 0 0 0 0 0 0 0 0 0 0 0 0 0 0 0 0 0 0 0 0 0 0 0 0 0 0 0 0 0 0 0 0 0 0 0 0 0 0 0 0 0 0 0 0 0 0 0 0 0 0 0 0 0 0 0 0 0 0 0 0 0 0 0 0 0 0 0 0 0 0 0 0 0 0 0 0 0 0 0 0 0 0 0 0 0 0 0 0 0 0 0 0 0 0 0 0 0 0 0 0 0 0 0 0 0 0 0 0 0 0 0 0 0 0 0 0 0 0 0 0 0 0 0 0 0 0 0 0 0 0 0 0 0 0 0 0 0 0 0 0 0 0 0 0 0 0 0 0 0 0 0 0 0 0 0 0 0 0 0 0 0 0 0 0 0 0 0 0 0 0 0 0 0 0 0 0 0 0 0 0 0 0 0 0 0 0 0 0 0 0 0 0 0 0 0 0 0 0 0 0 0 0 0 0 0 0 0 0 0 0 0 0 0 0 0 0 0 0 0 0 0 0 0 0 0 0 0 0 0 0 0 0 0 0 0 0 0 0 0 0 0 0 0 0 0 0 0 0 0 0 0 0 0 0 0 0 0 0 0 0 0 0 0 0 0 0 0 0 0 0 0 0 0 0 0 0 0 0 0 0 0 0 0 0 0 0 0 0 0 0 0 0 0 0 0 0 0 0 0 0 0 0 0 0 0 0 0 0 0 0 0 0 0 0 0 0 0 0 0 0 0 0 0 0 0 0 0 0 0 0 0 0 0 0 